certificates/rado_a15_c99_N61.cnf
c Rad2 upper bound instance: x1 + 15*x2 - x3 = 99, interval [1,61]
p cnf 61 496
1 7 0
-1 -7 0
1 8 22 0
-1 -8 -22 0
1 9 37 0
-1 -9 -37 0
1 10 52 0
-1 -10 -52 0
2 7 8 0
-2 -7 -8 0
2 8 23 0
-2 -8 -23 0
2 9 38 0
-2 -9 -38 0
2 10 53 0
-2 -10 -53 0
3 7 9 0
-3 -7 -9 0
3 8 24 0
-3 -8 -24 0
3 9 39 0
-3 -9 -39 0
3 10 54 0
-3 -10 -54 0
4 7 10 0
-4 -7 -10 0
4 8 25 0
-4 -8 -25 0
4 9 40 0
-4 -9 -40 0
4 10 55 0
-4 -10 -55 0
5 7 11 0
-5 -7 -11 0
5 8 26 0
-5 -8 -26 0
5 9 41 0
-5 -9 -41 0
5 10 56 0
-5 -10 -56 0
6 7 12 0
-6 -7 -12 0
6 8 27 0
-6 -8 -27 0
6 9 42 0
-6 -9 -42 0
6 10 57 0
-6 -10 -57 0
7 13 0
-7 -13 0
7 8 28 0
-7 -8 -28 0
7 9 43 0
-7 -9 -43 0
7 10 58 0
-7 -10 -58 0
7 8 14 0
-7 -8 -14 0
8 29 0
-8 -29 0
8 9 44 0
-8 -9 -44 0
8 10 59 0
-8 -10 -59 0
7 9 15 0
-7 -9 -15 0
8 9 30 0
-8 -9 -30 0
9 45 0
-9 -45 0
9 10 60 0
-9 -10 -60 0
1 6 10 0
-1 -6 -10 0
7 10 16 0
-7 -10 -16 0
8 10 31 0
-8 -10 -31 0
9 10 46 0
-9 -10 -46 0
10 61 0
-10 -61 0
2 6 11 0
-2 -6 -11 0
7 11 17 0
-7 -11 -17 0
8 11 32 0
-8 -11 -32 0
9 11 47 0
-9 -11 -47 0
3 6 12 0
-3 -6 -12 0
7 12 18 0
-7 -12 -18 0
8 12 33 0
-8 -12 -33 0
9 12 48 0
-9 -12 -48 0
4 6 13 0
-4 -6 -13 0
7 13 19 0
-7 -13 -19 0
8 13 34 0
-8 -13 -34 0
9 13 49 0
-9 -13 -49 0
5 6 14 0
-5 -6 -14 0
7 14 20 0
-7 -14 -20 0
8 14 35 0
-8 -14 -35 0
9 14 50 0
-9 -14 -50 0
6 15 0
-6 -15 0
7 15 21 0
-7 -15 -21 0
8 15 36 0
-8 -15 -36 0
9 15 51 0
-9 -15 -51 0
6 7 16 0
-6 -7 -16 0
7 16 22 0
-7 -16 -22 0
8 16 37 0
-8 -16 -37 0
9 16 52 0
-9 -16 -52 0
6 8 17 0
-6 -8 -17 0
7 17 23 0
-7 -17 -23 0
8 17 38 0
-8 -17 -38 0
9 17 53 0
-9 -17 -53 0
6 9 18 0
-6 -9 -18 0
7 18 24 0
-7 -18 -24 0
8 18 39 0
-8 -18 -39 0
9 18 54 0
-9 -18 -54 0
6 10 19 0
-6 -10 -19 0
7 19 25 0
-7 -19 -25 0
8 19 40 0
-8 -19 -40 0
9 19 55 0
-9 -19 -55 0
6 11 20 0
-6 -11 -20 0
7 20 26 0
-7 -20 -26 0
8 20 41 0
-8 -20 -41 0
9 20 56 0
-9 -20 -56 0
6 12 21 0
-6 -12 -21 0
7 21 27 0
-7 -21 -27 0
8 21 42 0
-8 -21 -42 0
9 21 57 0
-9 -21 -57 0
6 13 22 0
-6 -13 -22 0
7 22 28 0
-7 -22 -28 0
8 22 43 0
-8 -22 -43 0
9 22 58 0
-9 -22 -58 0
6 14 23 0
-6 -14 -23 0
7 23 29 0
-7 -23 -29 0
8 23 44 0
-8 -23 -44 0
9 23 59 0
-9 -23 -59 0
6 15 24 0
-6 -15 -24 0
7 24 30 0
-7 -24 -30 0
8 24 45 0
-8 -24 -45 0
9 24 60 0
-9 -24 -60 0
1 5 25 0
-1 -5 -25 0
6 16 25 0
-6 -16 -25 0
7 25 31 0
-7 -25 -31 0
8 25 46 0
-8 -25 -46 0
9 25 61 0
-9 -25 -61 0
2 5 26 0
-2 -5 -26 0
6 17 26 0
-6 -17 -26 0
7 26 32 0
-7 -26 -32 0
8 26 47 0
-8 -26 -47 0
3 5 27 0
-3 -5 -27 0
6 18 27 0
-6 -18 -27 0
7 27 33 0
-7 -27 -33 0
8 27 48 0
-8 -27 -48 0
4 5 28 0
-4 -5 -28 0
6 19 28 0
-6 -19 -28 0
7 28 34 0
-7 -28 -34 0
8 28 49 0
-8 -28 -49 0
5 29 0
-5 -29 0
6 20 29 0
-6 -20 -29 0
7 29 35 0
-7 -29 -35 0
8 29 50 0
-8 -29 -50 0
5 6 30 0
-5 -6 -30 0
6 21 30 0
-6 -21 -30 0
7 30 36 0
-7 -30 -36 0
8 30 51 0
-8 -30 -51 0
5 7 31 0
-5 -7 -31 0
6 22 31 0
-6 -22 -31 0
7 31 37 0
-7 -31 -37 0
8 31 52 0
-8 -31 -52 0
5 8 32 0
-5 -8 -32 0
6 23 32 0
-6 -23 -32 0
7 32 38 0
-7 -32 -38 0
8 32 53 0
-8 -32 -53 0
5 9 33 0
-5 -9 -33 0
6 24 33 0
-6 -24 -33 0
7 33 39 0
-7 -33 -39 0
8 33 54 0
-8 -33 -54 0
5 10 34 0
-5 -10 -34 0
6 25 34 0
-6 -25 -34 0
7 34 40 0
-7 -34 -40 0
8 34 55 0
-8 -34 -55 0
5 11 35 0
-5 -11 -35 0
6 26 35 0
-6 -26 -35 0
7 35 41 0
-7 -35 -41 0
8 35 56 0
-8 -35 -56 0
5 12 36 0
-5 -12 -36 0
6 27 36 0
-6 -27 -36 0
7 36 42 0
-7 -36 -42 0
8 36 57 0
-8 -36 -57 0
5 13 37 0
-5 -13 -37 0
6 28 37 0
-6 -28 -37 0
7 37 43 0
-7 -37 -43 0
8 37 58 0
-8 -37 -58 0
5 14 38 0
-5 -14 -38 0
6 29 38 0
-6 -29 -38 0
7 38 44 0
-7 -38 -44 0
8 38 59 0
-8 -38 -59 0
5 15 39 0
-5 -15 -39 0
6 30 39 0
-6 -30 -39 0
7 39 45 0
-7 -39 -45 0
8 39 60 0
-8 -39 -60 0
1 4 40 0
-1 -4 -40 0
5 16 40 0
-5 -16 -40 0
6 31 40 0
-6 -31 -40 0
7 40 46 0
-7 -40 -46 0
8 40 61 0
-8 -40 -61 0
2 4 41 0
-2 -4 -41 0
5 17 41 0
-5 -17 -41 0
6 32 41 0
-6 -32 -41 0
7 41 47 0
-7 -41 -47 0
3 4 42 0
-3 -4 -42 0
5 18 42 0
-5 -18 -42 0
6 33 42 0
-6 -33 -42 0
7 42 48 0
-7 -42 -48 0
4 43 0
-4 -43 0
5 19 43 0
-5 -19 -43 0
6 34 43 0
-6 -34 -43 0
7 43 49 0
-7 -43 -49 0
4 5 44 0
-4 -5 -44 0
5 20 44 0
-5 -20 -44 0
6 35 44 0
-6 -35 -44 0
7 44 50 0
-7 -44 -50 0
4 6 45 0
-4 -6 -45 0
5 21 45 0
-5 -21 -45 0
6 36 45 0
-6 -36 -45 0
7 45 51 0
-7 -45 -51 0
4 7 46 0
-4 -7 -46 0
5 22 46 0
-5 -22 -46 0
6 37 46 0
-6 -37 -46 0
7 46 52 0
-7 -46 -52 0
4 8 47 0
-4 -8 -47 0
5 23 47 0
-5 -23 -47 0
6 38 47 0
-6 -38 -47 0
7 47 53 0
-7 -47 -53 0
4 9 48 0
-4 -9 -48 0
5 24 48 0
-5 -24 -48 0
6 39 48 0
-6 -39 -48 0
7 48 54 0
-7 -48 -54 0
4 10 49 0
-4 -10 -49 0
5 25 49 0
-5 -25 -49 0
6 40 49 0
-6 -40 -49 0
7 49 55 0
-7 -49 -55 0
4 11 50 0
-4 -11 -50 0
5 26 50 0
-5 -26 -50 0
6 41 50 0
-6 -41 -50 0
7 50 56 0
-7 -50 -56 0
4 12 51 0
-4 -12 -51 0
5 27 51 0
-5 -27 -51 0
6 42 51 0
-6 -42 -51 0
7 51 57 0
-7 -51 -57 0
4 13 52 0
-4 -13 -52 0
5 28 52 0
-5 -28 -52 0
6 43 52 0
-6 -43 -52 0
7 52 58 0
-7 -52 -58 0
4 14 53 0
-4 -14 -53 0
5 29 53 0
-5 -29 -53 0
6 44 53 0
-6 -44 -53 0
7 53 59 0
-7 -53 -59 0
4 15 54 0
-4 -15 -54 0
5 30 54 0
-5 -30 -54 0
6 45 54 0
-6 -45 -54 0
7 54 60 0
-7 -54 -60 0
1 3 55 0
-1 -3 -55 0
4 16 55 0
-4 -16 -55 0
5 31 55 0
-5 -31 -55 0
6 46 55 0
-6 -46 -55 0
7 55 61 0
-7 -55 -61 0
2 3 56 0
-2 -3 -56 0
4 17 56 0
-4 -17 -56 0
5 32 56 0
-5 -32 -56 0
6 47 56 0
-6 -47 -56 0
3 57 0
-3 -57 0
4 18 57 0
-4 -18 -57 0
5 33 57 0
-5 -33 -57 0
6 48 57 0
-6 -48 -57 0
3 4 58 0
-3 -4 -58 0
4 19 58 0
-4 -19 -58 0
5 34 58 0
-5 -34 -58 0
6 49 58 0
-6 -49 -58 0
3 5 59 0
-3 -5 -59 0
4 20 59 0
-4 -20 -59 0
5 35 59 0
-5 -35 -59 0
6 50 59 0
-6 -50 -59 0
3 6 60 0
-3 -6 -60 0
4 21 60 0
-4 -21 -60 0
5 36 60 0
-5 -36 -60 0
6 51 60 0
-6 -51 -60 0
3 7 61 0
-3 -7 -61 0
4 22 61 0
-4 -22 -61 0
5 37 61 0
-5 -37 -61 0
6 52 61 0
-6 -52 -61 0
