certificates/rado_a15_c99_N61.drat
-54 -60 10 0
-60 10 0
d -54 -60 10 0
54 10 0
-3 -61 0
-61 0
10 0
3 0
-57 0
-54 0
4 13 0
d 4 6 13 0
-7 0
1 0
13 0
48 0
60 0
55 0
51 0
0
